
List of user-set options:

                                    Name   Value                used
                           linear_solver = ma57                  yes
                  ma57_automatic_scaling = yes                   yes
                                max_iter = 200                   yes
                             mu_strategy = adaptive              yes
                             output_file = SLIP_high_fixedTIPOPTinfo.txt  yes
                             print_level = 5                     yes
                      print_user_options = yes                   yes
                                     tol = 1e-010                yes
This is Ipopt version 3.11.0, running with linear solver ma57.

Number of nonzeros in equality constraint Jacobian...:   129973
Number of nonzeros in inequality constraint Jacobian.:        2
Number of nonzeros in Lagrangian Hessian.............:    26011

Total number of variables............................:    10009
                     variables with only lower bounds:        0
                variables with lower and upper bounds:    10009
                     variables with only upper bounds:        0
Total number of equality constraints.................:     9009
Total number of inequality constraints...............:        3
        inequality constraints with only lower bounds:        0
   inequality constraints with lower and upper bounds:        3
        inequality constraints with only upper bounds:        0

iter    objective    inf_pr   inf_du lg(mu)  ||d||  lg(rg) alpha_du alpha_pr  ls
   0 0.0000000e+000 2.52e+001 6.53e-005   0.0 0.00e+000    -  0.00e+000 0.00e+000   0
   1 -1.3649035e-001 1.95e+001 5.20e+001   0.2 3.89e+000    -  3.89e-001 2.27e-001f  1
   2 -1.5095490e-001 1.84e+001 1.20e+002   0.4 1.10e+001    -  7.16e-002 5.67e-002f  1
   3 -1.9182377e-001 1.60e+001 4.68e+002   0.6 2.91e+000    -  9.90e-001 1.32e-001h  1
   4 -2.3896266e-001 1.33e+001 1.95e+003   1.1 2.60e+000    -  1.00e+000 1.68e-001h  1
   5 -2.7047010e-001 1.16e+001 1.14e+004   1.7 3.61e+000    -  1.00e+000 1.29e-001h  1
   6 -2.9265859e-001 1.04e+001 1.23e+005   2.4 3.98e+000    -  1.00e+000 1.04e-001h  1
   7 -3.0922901e-001 9.48e+000 1.95e+006   3.0 3.82e+000    -  1.00e+000 8.77e-002h  1
   8 -3.1312088e-001 9.25e+000 1.29e+008   3.8 5.66e+000    -  1.00e+000 2.39e-002h  1
   9 -3.1364974e-001 9.22e+000 8.39e+008  -2.2 1.35e+001    -  2.30e-002 3.50e-003h  1
iter    objective    inf_pr   inf_du lg(mu)  ||d||  lg(rg) alpha_du alpha_pr  ls
  10 -3.1371559e-001 9.21e+000 2.07e+009  -2.2 1.55e+001    -  1.00e-003 4.40e-004h  1
  11 -3.1410775e-001 9.19e+000 1.89e+009   4.3 2.34e+001    -  1.52e-003 2.66e-003h  1
  12 -3.1415194e-001 9.19e+000 2.37e+009  -2.2 1.36e+001    -  6.38e-004 2.90e-004h  1
  13 -3.1461851e-001 9.16e+000 2.91e+009   4.3 3.28e+001    -  1.29e-003 3.22e-003h  1
  14 -3.1465508e-001 9.15e+000 4.28e+009  -2.2 1.47e+001    -  1.04e-003 2.41e-004h  1
  15 -3.1522615e-001 9.12e+000 2.71e+009   4.1 3.22e+001    -  1.67e-003 3.96e-003h  1
  16 -3.1525542e-001 9.12e+000 8.37e+009  -2.2 1.58e+001    -  1.63e-003 1.94e-004h  1
  17 -3.1577103e-001 9.08e+000 4.41e+009   4.3 2.81e+001    -  1.35e-004 3.62e-003h  1
  18 -3.1579222e-001 9.08e+000 1.32e+010  -2.2 1.94e+001    -  2.45e-003 1.42e-004h  1
  19 -3.1622653e-001 9.05e+000 5.91e+009   4.3 2.49e+001    -  1.03e-004 3.04e-003h  1
iter    objective    inf_pr   inf_du lg(mu)  ||d||  lg(rg) alpha_du alpha_pr  ls
  20 -3.1635920e-001 9.05e+000 1.42e+010   4.3 2.92e+001    -  9.14e-003 9.36e-004h  1
  21 -3.1641609e-001 9.04e+000 3.26e+010  -2.2 2.64e+001    -  1.37e-003 3.85e-004h  1
  22 -3.1671022e-001 9.02e+000 1.63e+010   4.3 9.97e+001    -  2.70e-005 2.19e-003h  1
  23 -3.1672466e-001 9.02e+000 6.45e+010  -2.2 4.36e+001    -  2.09e-003 1.00e-004h  1
  24 -3.1715081e-001 8.99e+000 7.81e+010   4.3 6.54e+001    -  1.47e-005 3.05e-003h  1
  25 -3.1715503e-001 8.99e+000 1.48e+011  -2.2 7.36e+001    -  8.19e-004 3.08e-005h  1
  26 -3.1721710e-001 8.99e+000 8.82e+010   4.3 1.31e+002    -  5.92e-006 4.93e-004h  1
  27 -3.1721917e-001 8.99e+000 1.09e+011  -2.2 7.92e+001    -  1.41e-004 1.54e-005h  1
  28 -3.1723614e-001 8.99e+000 8.82e+010   4.3 2.00e+002    -  2.14e-006 1.51e-004h  1
  29 -3.1723814e-001 8.99e+000 2.34e+011  -2.2 1.03e+002    -  5.65e-004 1.50e-005h  1
iter    objective    inf_pr   inf_du lg(mu)  ||d||  lg(rg) alpha_du alpha_pr  ls
  30 -3.1734977e-001 8.98e+000 4.30e+011   4.3 1.38e+002    -  3.07e-006 8.56e-004h  1
  31r-3.1734977e-001 8.98e+000 9.94e+002   4.3 0.00e+000    -  0.00e+000 3.66e-007R  5
  32r-3.5383018e-001 3.98e+000 1.86e+002   1.9 3.10e+001    -  8.13e-001 8.00e-001f  1
  33 -4.1337869e-001 2.97e+000 9.79e+001   0.1 2.44e+000    -  5.59e-001 2.53e-001h  1
  34 -4.0730162e-001 2.82e+000 2.28e+003   0.8 1.25e+001    -  9.90e-001 5.05e-002f  1
  35 -4.4008132e-001 1.80e+000 4.70e+003   0.8 8.70e-001    -  9.71e-001 3.64e-001h  1
  36 -4.4040134e-001 1.78e+000 1.18e+004  -5.2 3.34e+000    -  1.55e-001 7.26e-003h  1
  37 -4.4241003e-001 1.75e+000 2.68e+006   2.5 2.09e+001    -  9.16e-001 1.99e-002h  1
  38 -4.4343754e-001 1.73e+000 9.29e+007   4.3 2.78e+001    -  3.53e-001 1.06e-002h  1
  39 -4.4463159e-001 1.71e+000 1.15e+008   4.3 3.91e+001    -  1.52e-002 1.20e-002h  1
iter    objective    inf_pr   inf_du lg(mu)  ||d||  lg(rg) alpha_du alpha_pr  ls
  40 -4.4492337e-001 1.70e+000 4.04e+008   4.3 6.51e+001    -  1.56e-002 2.83e-003h  1
  41 -4.4500454e-001 1.70e+000 1.11e+009  -2.1 6.23e+001    -  2.05e-003 7.55e-004h  1
  42 -4.4508226e-001 1.70e+000 1.36e+009  -2.1 5.17e+001    -  1.15e-003 7.24e-004h  1
  43 -4.4530230e-001 1.70e+000 1.28e+009   3.9 5.73e+001    -  2.34e-003 2.06e-003h  1
  44 -4.4533087e-001 1.70e+000 1.56e+009  -2.1 4.29e+001    -  2.34e-004 2.67e-004h  1
  45 -4.4548130e-001 1.70e+000 1.59e+009   4.3 4.37e+001    -  1.48e-003 1.41e-003h  1
  46 -4.4558304e-001 1.69e+000 7.44e+009   4.3 7.53e+001    -  1.24e-004 9.55e-004h  1
  47 -4.4567204e-001 1.69e+000 7.44e+009   2.6 7.20e+001    -  5.53e-004 8.38e-004h  1
  48 -4.4567654e-001 1.69e+000 7.44e+009  -2.1 1.28e+002    -  1.83e-004 4.23e-005h  1
  49 -4.4570830e-001 1.69e+000 7.43e+009   2.4 1.38e+002    -  4.86e-005 2.99e-004h  1
iter    objective    inf_pr   inf_du lg(mu)  ||d||  lg(rg) alpha_du alpha_pr  ls
  50 -4.4574452e-001 1.69e+000 7.43e+009   2.6 1.17e+002    -  2.66e-004 3.41e-004h  1
  51 -4.4575508e-001 1.69e+000 1.11e+010  -2.1 1.36e+002    -  2.81e-004 9.93e-005h  1
  52 -4.4584398e-001 1.69e+000 1.14e+010   4.3 1.17e+002    -  6.09e-006 8.40e-004h  1
  53 -4.4584828e-001 1.69e+000 2.58e+010  -2.1 9.56e+001    -  3.78e-004 4.05e-005h  1
  54 -4.4597080e-001 1.69e+000 2.12e+010   4.3 1.02e+002    -  7.29e-006 1.16e-003h  1
  55 -4.4597300e-001 1.69e+000 4.14e+010  -2.1 1.05e+002    -  4.56e-004 2.08e-005h  1
  56 -4.4610387e-001 1.69e+000 5.56e+010   4.3 1.12e+002    -  5.15e-006 1.24e-003h  1
  57r-4.4610387e-001 1.69e+000 9.92e+002   4.3 0.00e+000    -  0.00e+000 3.68e-007R  5
  58r-4.5914723e-001 8.03e-001 5.39e+002  -2.0 2.18e+001    -  4.75e-001 9.71e-001f  1
  59 -4.5914864e-001 8.03e-001 3.08e+002  -4.7 3.28e+001    -  7.24e-003 2.32e-005h  1
iter    objective    inf_pr   inf_du lg(mu)  ||d||  lg(rg) alpha_du alpha_pr  ls
  60 -4.5915353e-001 8.03e-001 8.82e+003  -0.1 9.31e+001    -  7.01e-003 5.46e-005f  1
  61 -4.5915529e-001 8.03e-001 2.43e+006   1.1 1.71e+002    -  4.70e-003 1.85e-005h  1
  62 -4.5916184e-001 8.03e-001 3.85e+006  -4.7 3.76e+002    -  1.08e-004 6.82e-005h  1
  63 -4.5917511e-001 8.03e-001 1.22e+007   1.3 4.22e+002    -  3.29e-004 1.40e-004h  1
  64 -4.5917710e-001 8.03e-001 4.14e+007  -4.7 3.48e+003    -  7.25e-005 2.16e-005h  1
  65 -4.5917803e-001 8.03e-001 3.14e+008   3.3 2.03e+004    -  6.53e-005 1.01e-005h  1
  66 -4.6354255e-001 2.43e-001 2.16e+008  -4.7 8.99e-002   8.0 3.13e-001 1.00e+000h  1
  67r-4.6354255e-001 2.43e-001 9.99e+002   3.1 0.00e+000    -  0.00e+000 4.70e-007R  3
  68r-4.9582414e-001 5.92e-002 1.33e+002  -3.2 1.63e+000    -  8.68e-001 6.05e-001f  1
  69r-4.9582414e-001 5.92e-002 9.99e+002  -1.2 0.00e+000    -  0.00e+000 2.98e-007R  4
iter    objective    inf_pr   inf_du lg(mu)  ||d||  lg(rg) alpha_du alpha_pr  ls
  70r-4.9035560e-001 8.08e-002 9.95e+002   0.3 5.59e+000    -  2.21e-003 4.35e-003f  1
  71r-4.6251652e-001 1.17e-001 1.02e+003   0.9 1.03e+001    -  1.49e-003 1.03e-002f  1
  72r-5.2824924e-001 2.02e-001 2.24e+003   0.9 6.74e+000    -  1.02e-001 2.43e-002f  1
  73r-5.9552707e-001 4.45e-001 2.22e+003   0.9 3.59e+000    -  2.37e-001 1.88e-001f  1
  74r-6.6106822e-001 6.59e-001 1.78e+003   0.9 6.22e-001    -  4.40e-001 7.74e-001f  1
  75r-6.7396104e-001 4.40e-001 4.20e+003   0.9 6.66e-001    -  9.90e-001 3.29e-001f  1
  76r-7.1996835e-001 2.72e-001 8.49e+001   0.9 3.49e-001    -  1.00e+000 1.00e+000f  1
  77r-6.7891566e-001 2.44e-001 3.33e+001   0.2 2.12e-001    -  8.93e-001 1.00e+000f  1
  78r-6.4645330e-001 2.08e-001 1.96e+002  -0.5 3.05e-001    -  8.02e-001 6.00e-001f  1
  79r-6.3780556e-001 1.98e-001 7.84e+002  -0.5 2.26e-001    -  1.00e+000 1.55e-001f  1
iter    objective    inf_pr   inf_du lg(mu)  ||d||  lg(rg) alpha_du alpha_pr  ls
  80r-5.6223438e-001 1.42e-001 2.60e+002  -0.5 2.62e-001    -  1.00e+000 7.35e-001f  1
  81r-5.5281472e-001 1.24e-001 3.15e+002  -0.5 7.34e-002    -  1.00e+000 5.90e-001f  1
  82r-5.4713905e-001 1.10e-001 1.05e+000  -0.5 3.11e-002    -  1.00e+000 1.00e+000f  1
  83r-5.2600176e-001 9.37e-002 5.78e+002  -6.5 2.94e-001    -  7.37e-001 2.84e-001f  1
  84r-5.0222279e-001 7.68e-002 9.09e+002  -1.4 3.44e-001    -  1.00e+000 3.40e-001f  1
  85r-4.9013183e-001 7.40e-002 3.64e+002  -1.2 3.56e-001    -  1.00e+000 6.69e-001f  1
  86r-4.8601742e-001 9.54e-002 4.54e+001  -1.2 2.32e-001    -  1.00e+000 1.00e+000f  1
  87r-4.8718415e-001 9.62e-002 3.34e+002  -1.8 1.46e-002   2.0 9.94e-001 6.25e-001f  1
  88r-4.8975472e-001 9.74e-002 3.24e+000  -1.8 2.53e-002   1.5 1.00e+000 1.00e+000f  1
  89r-4.9282469e-001 1.02e-001 2.35e+001  -2.1 7.80e-002   1.0 1.00e+000 8.83e-001f  1
iter    objective    inf_pr   inf_du lg(mu)  ||d||  lg(rg) alpha_du alpha_pr  ls
  90r-4.9283488e-001 1.03e-001 6.29e+002  -1.2 1.26e-001   0.6 1.78e-001 6.73e-003f  1
  91r-4.9352650e-001 1.08e-001 1.40e+002  -2.1 1.11e-001   1.0 1.00e+000 6.41e-001f  1
  92r-4.9275491e-001 1.10e-001 1.11e+002  -1.8 3.65e-001   0.5 8.71e-002 1.22e-001f  1
  93r-4.9124817e-001 1.12e-001 8.73e+002  -1.4 9.21e-001   0.0 1.45e-001 4.31e-002f  1
  94r-4.9012997e-001 1.09e-001 8.73e+002  -2.0 3.31e+000    -  5.36e-003 5.18e-003f  1
  95r-4.9017204e-001 1.10e-001 7.02e+002  -1.3 1.90e+000    -  1.12e-001 6.87e-003f  1
  96r-4.8780067e-001 1.04e-001 5.73e+002  -1.9 1.00e+000    -  3.58e-002 5.77e-002f  1
  97r-4.8826991e-001 1.08e-001 6.93e+002  -1.1 2.59e+000    -  7.41e-002 1.70e-002f  1
  98r-4.8717110e-001 1.06e-001 6.50e+002  -1.9 8.64e-001    -  8.20e-002 7.05e-002f  1
  99r-4.8728891e-001 1.13e-001 1.73e+003  -1.2 1.47e+000    -  6.76e-001 6.98e-002f  1
iter    objective    inf_pr   inf_du lg(mu)  ||d||  lg(rg) alpha_du alpha_pr  ls
 100r-4.8412568e-001 1.06e-001 7.52e+002  -1.6 3.23e-001    -  5.65e-001 5.67e-001f  1
 101r-4.8287310e-001 1.05e-001 7.83e+002  -1.5 3.05e-001    -  8.96e-001 4.36e-001f  1
 102r-4.8127245e-001 1.03e-001 2.61e+002  -1.7 4.22e-001    -  1.00e+000 6.30e-001f  1
 103r-4.8029174e-001 1.05e-001 4.04e-001  -1.6 4.20e-001    -  1.00e+000 1.00e+000f  1
 104r-4.7970146e-001 1.04e-001 1.00e+002  -1.8 2.61e-001    -  9.88e-001 4.83e-001f  1
 105r-4.7789569e-001 1.06e-001 1.12e+002  -1.9 8.86e-001    -  1.00e+000 6.76e-001f  1
 106r-4.7677810e-001 1.08e-001 8.75e+001  -2.0 8.49e-001    -  1.00e+000 6.90e-001f  1
 107r-4.7592913e-001 1.10e-001 6.12e+001  -2.1 6.68e-001    -  1.00e+000 7.60e-001f  1
 108r-4.7521888e-001 1.13e-001 9.16e-002  -2.1 5.89e-001    -  1.00e+000 1.00e+000f  1
 109r-4.7474385e-001 1.16e-001 4.90e+001  -2.2 5.17e-001    -  5.94e-001 1.00e+000f  1
iter    objective    inf_pr   inf_du lg(mu)  ||d||  lg(rg) alpha_du alpha_pr  ls
 110r-4.7464227e-001 1.15e-001 7.31e-003  -2.2 2.35e-001    -  1.00e+000 1.00e+000f  1
 111r-4.7442687e-001 1.17e-001 1.01e+001  -2.7 1.40e+000    -  1.56e-001 1.37e-001f  1
 112r-4.7421187e-001 1.21e-001 1.08e+001  -2.2 5.88e-001    -  1.00e+000 7.39e-001F  1
 113r-4.7403748e-001 1.20e-001 1.74e-002  -2.3 1.61e-001    -  1.00e+000 1.00e+000f  1
 114r-4.7394269e-001 1.22e-001 1.99e+001  -2.3 3.35e-001    -  9.90e-001 6.73e-001f  1
 115r-4.7363413e-001 1.23e-001 6.34e-003  -2.4 2.73e-001    -  1.00e+000 1.00e+000f  1
 116r-4.7356626e-001 1.25e-001 4.78e+001  -8.4 2.05e+000    -  2.18e-002 1.16e-001f  1
 117r-4.7344961e-001 1.26e-001 4.55e+001  -2.4 1.13e+000    -  4.36e-001 2.87e-001f  1
 118r-4.7338274e-001 1.26e-001 1.26e+002  -2.5 1.73e-001    -  1.00e+000 3.21e-001f  1
 119r-4.7326819e-001 1.27e-001 7.45e+001  -2.6 3.61e-001    -  1.00e+000 6.19e-001f  1
iter    objective    inf_pr   inf_du lg(mu)  ||d||  lg(rg) alpha_du alpha_pr  ls
 120r-4.7282694e-001 1.27e-001 2.23e+001  -2.7 4.24e-001    -  1.00e+000 8.95e-001f  1
 121r-4.7284564e-001 1.29e-001 1.90e-002  -2.8 3.86e-001    -  1.00e+000 1.00e+000f  1
 122r-4.7287439e-001 1.29e-001 4.16e+001  -3.1 1.55e-001    -  9.96e-001 5.67e-001f  1
 123r-4.7285218e-001 1.30e-001 2.27e+001  -3.1 4.61e-001    -  1.00e+000 5.77e-001f  1
 124r-4.7282692e-001 1.30e-001 3.70e+001  -3.3 4.91e-001    -  1.00e+000 5.28e-001f  1
 125r-4.7284321e-001 1.30e-001 1.72e-003  -3.2 2.07e-001    -  1.00e+000 1.00e+000f  1
 126r-4.7279722e-001 1.31e-001 2.91e+001  -3.7 7.85e-001    -  6.57e-001 4.68e-001f  1
 127r-4.7280529e-001 1.31e-001 5.46e+001  -3.5 4.06e-001    -  1.00e+000 4.95e-001f  1
 128r-4.7276965e-001 1.31e-001 3.70e-003  -3.6 3.32e-001    -  1.00e+000 1.00e+000f  1
 129r-4.7282590e-001 1.31e-001 8.77e+001  -4.0 9.92e-002    -  1.00e+000 8.22e-001f  1
iter    objective    inf_pr   inf_du lg(mu)  ||d||  lg(rg) alpha_du alpha_pr  ls
 130r-4.7277725e-001 1.31e-001 6.01e+001  -3.7 2.81e-001    -  1.00e+000 8.57e-001f  1
 131r-4.7279616e-001 1.31e-001 1.32e-003  -3.8 1.77e-001    -  1.00e+000 1.00e+000f  1
 132r-4.7282928e-001 1.31e-001 3.64e+001  -4.1 5.04e-002    -  9.90e-001 9.24e-001f  1
 133r-4.7280943e-001 1.32e-001 1.15e-003  -4.2 2.28e-001    -  1.00e+000 1.00e+000f  1
 134r-4.7282508e-001 1.32e-001 3.59e+000  -4.5 1.31e-001    -  9.54e-001 1.00e+000f  1
 135r-4.7282463e-001 1.32e-001 1.96e+002  -4.7 1.59e-001    -  8.70e-001 2.69e-001f  1
 136r-4.7283477e-001 1.32e-001 1.74e+002  -4.9 1.60e-001    -  1.00e+000 6.78e-001f  1
 137r-4.7282983e-001 1.32e-001 4.95e+001  -4.5 9.87e-002    -  6.40e-001 1.00e+000f  1
 138r-4.7283074e-001 1.32e-001 8.14e-004  -4.7 8.91e-002    -  1.00e+000 1.00e+000f  1
 139r-4.7283343e-001 1.32e-001 6.64e+001  -5.0 5.10e-002    -  1.00e+000 7.10e-001f  1
iter    objective    inf_pr   inf_du lg(mu)  ||d||  lg(rg) alpha_du alpha_pr  ls
 140r-4.7283261e-001 1.32e-001 4.52e+001  -4.9 1.32e-001    -  9.02e-001 7.35e-001f  1
 141r-4.7283333e-001 1.32e-001 3.52e-004  -5.0 3.55e-002    -  1.00e+000 1.00e+000f  1
 142r-4.7283338e-001 1.32e-001 6.15e+001  -5.3 4.43e-002    -  1.00e+000 7.10e-001f  1
 143r-4.7283347e-001 1.32e-001 7.25e+001  -5.3 1.56e-001    -  1.00e+000 5.17e-001f  1
 144r-4.7283310e-001 1.32e-001 6.75e-004  -5.6 5.07e-002    -  1.00e+000 1.00e+000f  1
 145r-4.7283301e-001 1.32e-001 2.80e+001  -5.7 1.33e-001    -  9.97e-001 8.60e-001f  1
 146r-4.7283254e-001 1.32e-001 8.77e+000  -6.1 4.03e-002    -  1.00e+000 9.27e-001f  1
 147r-4.7283245e-001 1.32e-001 5.80e+001  -6.5 1.61e-001    -  1.00e+000 2.06e-001f  1
 148r-4.7283228e-001 1.32e-001 6.27e+001  -6.4 3.61e-001    -  1.00e+000 3.43e-001f  1
 149r-4.7283197e-001 1.32e-001 2.01e-005  -6.4 8.45e-002    -  1.00e+000 1.00e+000f  1
iter    objective    inf_pr   inf_du lg(mu)  ||d||  lg(rg) alpha_du alpha_pr  ls
 150r-4.7283176e-001 1.32e-001 8.20e+000  -7.1 1.24e-002    -  9.98e-001 7.68e-001f  1
 151r-4.7283164e-001 1.32e-001 2.10e+001  -6.5 3.48e-001    -  1.00e+000 5.21e-001f  1
 152r-4.7283170e-001 1.32e-001 2.53e+001  -6.7 9.87e-002    -  1.73e-001 1.00e+000f  1
 153r-4.7283165e-001 1.32e-001 1.43e-007  -6.7 3.75e-002    -  1.00e+000 1.00e+000h  1
 154r-4.7283148e-001 1.32e-001 3.26e-001 -10.3 1.64e-002    -  7.57e-001 7.42e-001f  1
 155r-4.7283152e-001 1.32e-001 8.79e+001  -6.0 9.32e+000    -  8.61e-001 6.39e-003f  1
 156r-4.7283168e-001 1.32e-001 7.03e+001  -6.4 9.10e-002    -  7.05e-002 4.10e-001f  1
 157r-4.7283189e-001 1.32e-001 3.12e+001  -6.4 7.19e-002    -  4.14e-001 9.14e-001f  1
 158r-4.7283191e-001 1.32e-001 6.11e+000  -6.4 2.06e-001    -  7.91e-001 1.00e+000f  1
 159r-4.7283193e-001 1.32e-001 7.82e-008  -6.4 3.89e-002    -  1.00e+000 1.00e+000h  1
iter    objective    inf_pr   inf_du lg(mu)  ||d||  lg(rg) alpha_du alpha_pr  ls
 160r-4.7283172e-001 1.32e-001 7.34e+000 -10.3 1.90e-002    -  8.18e-001 6.36e-001f  1
 161r-4.7283177e-001 1.32e-001 7.20e+000  -7.1 1.19e+001    -  4.23e-002 1.47e-002f  1
 162r-4.7283134e-001 1.32e-001 7.07e+000  -7.1 6.14e-002    -  9.35e-001 7.72e-001f  1
 163r-4.7283127e-001 1.32e-001 6.07e-009  -7.1 1.07e-002    -  1.00e+000 1.00e+000f  1
 164r-4.7283115e-001 1.32e-001 9.38e-001  -7.9 1.23e-002    -  9.94e-001 8.68e-001f  1
 165r-4.7283100e-001 1.32e-001 6.99e+000  -7.8 2.07e-001    -  4.17e-001 1.64e-001f  1
 166r-4.7283088e-001 1.32e-001 1.63e+001  -7.8 1.55e-001    -  9.08e-001 1.85e-001f  1
 167r-4.7283074e-001 1.32e-001 1.20e+001  -7.8 1.26e-001    -  1.00e+000 3.16e-001f  1
 168r-4.7283066e-001 1.32e-001 9.38e-001  -7.8 8.65e-002    -  1.00e+000 9.18e-001f  1
 169r-4.7283063e-001 1.32e-001 2.89e-008  -7.8 1.33e-002    -  1.00e+000 1.00e+000f  1
iter    objective    inf_pr   inf_du lg(mu)  ||d||  lg(rg) alpha_du alpha_pr  ls
 170r-4.7283059e-001 1.32e-001 1.26e-001 -10.3 9.39e-003    -  9.54e-001 8.67e-001f  1
 171r-4.7283062e-001 1.32e-001 1.53e+001  -7.0 5.07e+000    -  1.00e+000 3.46e-002f  1
 172r-4.7283071e-001 1.32e-001 5.33e+001  -7.3 2.02e-001    -  1.25e-002 1.00e+000f  1
 173r-4.7283076e-001 1.32e-001 2.90e+001  -7.3 1.15e-001    -  5.72e-001 2.76e-001h  1
 174r-4.7283078e-001 1.32e-001 1.92e+001  -7.3 8.25e-002    -  4.42e-001 2.55e-001f  1
 175r-4.7283088e-001 1.32e-001 2.58e-006  -7.3 6.14e-002    -  1.00e+000 1.00e+000f  1
 176r-4.7283098e-001 1.32e-001 1.19e-007  -7.3 1.07e-002    -  1.00e+000 1.00e+000h  1
 177r-4.7283088e-001 1.32e-001 7.12e-001 -11.0 1.05e-002    -  8.97e-001 7.44e-001f  1
 178r-4.7283097e-001 1.32e-001 2.70e+001  -6.5 1.17e+001    -  1.00e+000 2.35e-002f  1
 179r-4.7283154e-001 1.32e-001 6.16e+001  -6.9 3.64e-001    -  9.64e-002 1.00e+000f  1
iter    objective    inf_pr   inf_du lg(mu)  ||d||  lg(rg) alpha_du alpha_pr  ls
 180r-4.7283136e-001 1.32e-001 2.93e+001  -6.9 1.12e-001    -  6.36e-001 4.39e-001h  1
 181r-4.7283140e-001 1.32e-001 7.17e+000  -6.9 5.85e-002    -  7.51e-001 7.57e-001f  1
 182r-4.7283141e-001 1.32e-001 7.81e-007  -6.9 1.93e-002    -  1.00e+000 1.00e+000f  1
 183r-4.7283127e-001 1.32e-001 2.44e-001 -10.4 1.55e-002    -  7.86e-001 8.06e-001f  1
 184r-4.7283123e-001 1.32e-001 2.39e-001 -10.4 5.58e+000    -  4.40e-002 4.63e-002f  1
 185r-4.7283121e-001 1.32e-001 2.54e+000 -10.4 4.89e+000    -  7.23e-002 2.41e-002f  1
 186r-4.7283120e-001 1.32e-001 6.30e+000 -10.4 1.19e+000    -  8.78e-002 1.33e-002f  1
 187r-4.7283114e-001 1.32e-001 7.49e+000 -10.4 1.17e+000    -  1.60e-001 1.16e-001f  1
 188r-4.7283114e-001 1.32e-001 1.68e+001 -10.4 9.81e-001    -  3.91e-001 9.19e-002f  1
 189r-4.7283116e-001 1.32e-001 1.83e+001 -10.4 6.77e-001    -  3.89e-001 1.70e-001f  1
iter    objective    inf_pr   inf_du lg(mu)  ||d||  lg(rg) alpha_du alpha_pr  ls
 190r-4.7283118e-001 1.32e-001 2.02e+001 -10.4 2.65e-001    -  6.09e-001 1.93e-001f  1
 191r-4.7283117e-001 1.32e-001 1.15e+001 -10.4 9.23e-002    -  6.38e-001 4.80e-001f  1
 192r-4.7283118e-001 1.32e-001 6.08e+000 -10.4 2.75e-002    -  8.94e-001 5.44e-001f  1
 193r-4.7283122e-001 1.32e-001 1.15e+000 -10.4 1.62e-002    -  9.33e-001 8.12e-001f  1
 194r-4.7283126e-001 1.32e-001 2.19e-002 -10.4 6.49e-003    -  1.00e+000 9.78e-001f  1
 195r-4.7283127e-001 1.32e-001 6.58e-009 -10.4 1.96e-003    -  1.00e+000 1.00e+000f  1
 196r-4.7283128e-001 1.32e-001 5.08e-007 -10.3 1.70e-004    -  1.00e+000 1.00e+000h  1
 197r-4.7283130e-001 1.32e-001 7.31e-009 -10.3 4.77e-003    -  1.00e+000 1.00e+000h  1
 198r-4.7283